g3 1 1 0	# problem inst_sans_ref
 8 8 1 0 0	# vars, constraints, objectives, ranges, eqns
 8 1	# nonlinear constraints, objectives
 0 0	# network constraints: nonlinear, linear
 8 8 8	# nonlinear vars in constraints, objectives, both
 0 0 0 1	# linear network variables; functions; arith, flags
 0 0 0 0 0	# discrete variables: binary, integer, nonlinear (b,c,o)
 64 8	# nonzeros in Jacobian, gradients
 0 0	# max name lengths: constraints, variables
 0 0 0 0 0	# common exprs: b,c,o,c1,o1
b
0 0 1
0 0 1
0 0 1
0 0 1
0 0 1
0 0 1
0 0 1
0 0 1
r
1 41.85
1 10.13
1 7.46
1 33.92
1 96.45
1 8.52
1 66.63
1 58.56
C0
o54
16
o2
o2
n-0.57
v0
v6
o2
o2
n-0.165
v0
v7
o2
o2
n-0.39
v1
v4
o2
o2
n0.31
v1
v6
o2
o2
n-0.48
v1
v7
o2
o2
n0.04
v2
v4
o2
o2
n0.925
v2
v5
o2
o2
n0.15
v2
v7
o2
o2
n-0.39
v4
v1
o2
o2
n0.04
v4
v2
o2
o2
n0.925
v5
v2
o2
o2
n-0.57
v6
v0
o2
o2
n0.31
v6
v1
o2
o2
n-0.165
v7
v0
o2
o2
n-0.48
v7
v1
o2
o2
n0.15
v7
v2
C1
o54
16
o2
o2
n0.46
v0
v5
o2
o2
n-0.16
v0
v6
o2
o2
n-0.395
v1
v5
o2
o2
n-0.96
v1
v6
o2
o2
n-0.57
v1
v7
o2
o2
n-0.29
v2
v4
o2
o2
n0.795
v3
v6
o2
o2
n0.81
v3
v7
o2
o2
n-0.29
v4
v2
o2
o2
n0.46
v5
v0
o2
o2
n-0.395
v5
v1
o2
o2
n-0.16
v6
v0
o2
o2
n-0.96
v6
v1
o2
o2
n0.795
v6
v3
o2
o2
n-0.57
v7
v1
o2
o2
n0.81
v7
v3
C2
o54
16
o2
o2
n-0.815
v0
v5
o2
o2
n0.265
v0
v7
o2
o2
n0.27
v1
v6
o2
o2
n-0.435
v1
v7
o2
o2
n0.1
v2
v4
o2
o2
n0.425
v2
v6
o2
o2
n-0.76
v3
v4
o2
o2
n0.285
v3
v5
o2
o2
n0.1
v4
v2
o2
o2
n-0.76
v4
v3
o2
o2
n-0.815
v5
v0
o2
o2
n0.285
v5
v3
o2
o2
n0.27
v6
v1
o2
o2
n0.425
v6
v2
o2
o2
n0.265
v7
v0
o2
o2
n-0.435
v7
v1
C3
o54
16
o2
o2
n0.365
v0
v6
o2
o2
n-0.77
v1
v4
o2
o2
n-0.905
v1
v5
o2
o2
n0.995
v1
v6
o2
o2
n0.555
v2
v4
o2
o2
n0.475
v2
v6
o2
o2
n-0.785
v3
v5
o2
o2
n0.455
v3
v6
o2
o2
n-0.77
v4
v1
o2
o2
n0.555
v4
v2
o2
o2
n-0.905
v5
v1
o2
o2
n-0.785
v5
v3
o2
o2
n0.365
v6
v0
o2
o2
n0.995
v6
v1
o2
o2
n0.475
v6
v2
o2
o2
n0.455
v6
v3
C4
o54
16
o2
o2
n0.08
v0
v7
o2
o2
n-0.14
v1
v7
o2
o2
n0.69
v2
v5
o2
o2
n0.015
v2
v6
o2
o2
n0.815
v2
v7
o2
o2
n0.4
v3
v4
o2
o2
n0.38
v3
v6
o2
o2
n-0.395
v3
v7
o2
o2
n0.4
v4
v3
o2
o2
n0.69
v5
v2
o2
o2
n0.015
v6
v2
o2
o2
n0.38
v6
v3
o2
o2
n0.08
v7
v0
o2
o2
n-0.14
v7
v1
o2
o2
n0.815
v7
v2
o2
o2
n-0.395
v7
v3
C5
o54
16
o2
o2
n0.135
v0
v7
o2
o2
n0.925
v1
v4
o2
o2
n-0.075
v1
v5
o2
o2
n0.63
v2
v4
o2
o2
n0.925
v2
v6
o2
o2
n0.9
v2
v7
o2
o2
n0.64
v3
v4
o2
o2
n-0.205
v3
v5
o2
o2
n0.925
v4
v1
o2
o2
n0.63
v4
v2
o2
o2
n0.64
v4
v3
o2
o2
n-0.075
v5
v1
o2
o2
n-0.205
v5
v3
o2
o2
n0.925
v6
v2
o2
o2
n0.135
v7
v0
o2
o2
n0.9
v7
v2
C6
o54
16
o2
o2
n-0.45
v0
v4
o2
o2
n0.835
v0
v7
o2
o2
n-0.735
v1
v4
o2
o2
n0.06
v1
v6
o2
o2
n0.35
v2
v4
o2
o2
n0.065
v2
v6
o2
o2
n-0.5
v2
v7
o2
o2
n0.14
v3
v6
o2
o2
n-0.45
v4
v0
o2
o2
n-0.735
v4
v1
o2
o2
n0.35
v4
v2
o2
o2
n0.06
v6
v1
o2
o2
n0.065
v6
v2
o2
o2
n0.14
v6
v3
o2
o2
n0.835
v7
v0
o2
o2
n-0.5
v7
v2
C7
o54
16
o2
o2
n-0.23
v0
v5
o2
o2
n-0.13
v0
v6
o2
o2
n-0.11
v0
v7
o2
o2
n0.905
v1
v6
o2
o2
n-0.115
v2
v5
o2
o2
n-0.99
v2
v6
o2
o2
n0.235
v3
v6
o2
o2
n0.415
v3
v7
o2
o2
n-0.23
v5
v0
o2
o2
n-0.115
v5
v2
o2
o2
n-0.13
v6
v0
o2
o2
n0.905
v6
v1
o2
o2
n-0.99
v6
v2
o2
o2
n0.235
v6
v3
o2
o2
n-0.11
v7
v0
o2
o2
n0.415
v7
v3
O0 0
o54
16
o2
o2
n0.165
v0
v4
o2
o2
n-0.315
v1
v4
o2
o2
n-0.52
v1
v7
o2
o2
n0.65
v2
v5
o2
o2
n0.94
v2
v7
o2
o2
n-0.11
v3
v4
o2
o2
n0.86
v3
v5
o2
o2
n0.445
v3
v6
o2
o2
n0.165
v4
v0
o2
o2
n-0.315
v4
v1
o2
o2
n-0.11
v4
v3
o2
o2
n0.65
v5
v2
o2
o2
n0.86
v5
v3
o2
o2
n0.445
v6
v3
o2
o2
n-0.52
v7
v1
o2
o2
n0.94
v7
v2
k7
8
16
24
32
40
48
56
J0 8
0 -0.6
1 0.1
2 0.5
3 0.23
4 0.99
5 -0.45
6 -0.59
7 -0.32
J1 8
0 0.6
1 0.7
2 0.72
3 -0.31
4 0.39
5 0.58
6 -0.94
7 0.95
J2 8
0 0.31
1 -0.72
2 0.91
3 0.56
4 0.4
5 0.2
6 -0.38
7 -0.01
J3 8
0 -0.75
1 -0.21
2 0.31
3 -0.41
4 0.84
5 -0.3
6 0.89
7 -0.17
J4 8
0 0.93
1 0.37
2 0.02
3 0.29
4 -0.84
5 -0.39
6 -0.2
7 -0.01
J5 8
0 -0.17
1 -0.39
2 -0.84
3 0.16
4 -0.3
5 -0.74
6 0.08
7 -0.83
J6 8
0 0.19
1 -0.38
2 0.97
3 -0.18
4 -0.98
5 0.02
6 -0.72
7 -0.01
J7 8
0 0.62
1 0.81
2 -0.36
3 0.45
4 -0.04
5 -0.35
6 -0.69
7 0.8
G0 8
0 0.28
1 0.14
2 0.7
3 -0.37
4 0.82
5 -0.54
6 0.99
7 0.88
